NAME : instances/50-tsp/instance-48.tsp
COMMENT : No comment
TYPE : TSP
DIMENSION: 50
EDGE_WEIGHT_TYPE : EUC_2D
NODE_COORD_SECTION
1 1166 1041 
2 1530 174 
3 403 982 
4 1328 1226 
5 84 963 
6 1793 727 
7 1966 294 
8 1484 1931 
9 1708 893 
10 692 1362 
11 1344 1442 
12 1316 774 
13 588 481 
14 683 907 
15 1775 793 
16 738 491 
17 424 211 
18 1447 409 
19 11 1632 
20 1410 960 
21 1007 1641 
22 248 1750 
23 245 492 
24 53 1767 
25 1538 1435 
26 1440 886 
27 1052 755 
28 1252 810 
29 122 1506 
30 1109 393 
31 1125 960 
32 1281 1853 
33 355 1644 
34 24 1163 
35 1266 651 
36 430 125 
37 96 698 
38 446 571 
39 789 980 
40 729 1067 
41 806 1128 
42 1670 349 
43 1462 566 
44 433 992 
45 383 335 
46 720 1345 
47 318 113 
48 1580 157 
49 1294 1140 
50 157 1060 
EOF
